VALUE 374
11 39
39 65
56 81
56 57
57 58
58 59
59 60
60 61
65 90
80 81
61 85
90 114
101 126
85 108
108 109
109 110
110 111
111 112
112 113
113 114
114 115
115 116
116 117
118 143
118 119
119 120
121 146
121 122
122 123
123 124
124 125
125 126
117 141
141 142
142 143
120 144
144 145
145 146
126 150
141 165
165 166
166 167
150 173
167 191
173 199
191 218

